ELEM#	 von Mises Stresses at 1 Integ_points
  1  2  3  4Output for Input Data from file input.txt
PROBLEM 7.4

Plane Stress Analysis
 Node#    X-Displ         Y-Displ
    1     -1.1746E-06      8.5463E-22
    2     -8.5463E-22      2.5638E-21
    3      1.1746E-06     -5.8731E-07
    4     -1.7500E-01     -2.2957E-01
    5     -1.1427E-03     -1.9415E-01
    6      1.5843E-01     -2.0100E-01
    7     -2.1429E-01     -6.0715E-01
    8     -1.4286E-02     -6.4029E-01
    9      2.4286E-01     -6.6429E-01
  DOF#     Reaction
    1      2.0000E+04
    2     -1.4552E-11
    3      1.4552E-11
    4     -4.3654E-11
    5     -2.0000E+04
    6      1.0000E+04
ELEM#	 von Mises Stresses at 4 Integ_points
    1      2.1667E+02     2      1.8930E+02     3      8.3333E+01     4      1.1667E+02 