ELEM#	 von Mises Stresses at 4 Integ_points
  1  2  3  4Output for Input Data from file input.txt
PROBLEM 7.4

Plane Stress Analysis
 Node#    X-Displ         Y-Displ
    1     -8.8984E-07     -2.8335E-07
    2      1.7736E-08      1.5071E-07
    3      8.7210E-07     -3.0784E-07
    4     -8.8095E-02     -1.3105E-01
    5     -1.2826E-03     -1.2305E-01
    6      8.7963E-02     -1.2696E-01
    7     -1.1692E-01     -3.6519E-01
    8      3.5222E-04     -3.7014E-01
    9      1.2512E-01     -3.8686E-01
  DOF#     Reaction
    1      2.0201E+04
    2      6.4327E+03
    3     -4.0265E+02
    4     -3.4214E+03
    5     -1.9799E+04
    6      6.9886E+03
ELEM#	 von Mises Stresses at 4 Integ_points
    1      2.1336E+02     1.6028E+02     5.3779E+01     1.4114E+02
    2      1.3696E+02     4.8529E+01     1.5995E+02     2.0832E+02
    3      9.3736E+01     5.8816E+01     3.8024E+01     9.1475E+01
    4      9.2307E+01     6.9321E+01     9.4183E+01     1.2010E+02
