ELEM#	 von Mises Stresses at 4 Integ_points
  1  2  3  4  5  6  7  8  9  10  11  12  13  14  15  16  17  18  19  20Output for Input Data from file input_part_2.txt
PROBLEM 0.0

Plane Strain Analysis
 Node#    X-Displ         Y-Displ
    1     -2.6000E-10     -8.6115E-11
    2     -3.4607E-19      1.4623E-10
    3      2.6000E-10     -8.6115E-11
    4     -3.5274E-05     -4.0215E-05
    5      5.0061E-14     -3.5534E-05
    6      3.5274E-05     -4.0215E-05
    7     -6.8640E-05     -1.4595E-04
    8     -4.6773E-13     -1.4283E-04
    9      6.8640E-05     -1.4595E-04
   10     -9.7678E-05     -3.1478E-04
   11      2.5024E-12     -3.1183E-04
   12      9.7678E-05     -3.1478E-04
   13     -1.2293E-04     -5.3776E-04
   14     -8.4104E-12     -5.3527E-04
   15      1.2293E-04     -5.3776E-04
   16     -1.4428E-04     -8.0737E-04
   17     -5.6749E-12     -8.0529E-04
   18      1.4428E-04     -8.0738E-04
   19     -1.6176E-04     -1.1158E-03
   20      3.5180E-10     -1.1141E-03
   21      1.6176E-04     -1.1158E-03
   22     -1.7534E-04     -1.4553E-03
   23     -3.2615E-09     -1.4541E-03
   24      1.7535E-04     -1.4553E-03
   25     -1.8507E-04     -1.8181E-03
   26      1.9696E-08     -1.8173E-03
   27      1.8505E-04     -1.8181E-03
   28     -1.9084E-04     -2.1965E-03
   29     -7.8893E-08     -2.1960E-03
   30      1.9084E-04     -2.1962E-03
   31     -1.9266E-04     -2.5822E-03
   32      8.2412E-08     -2.5824E-03
   33      1.9327E-04     -2.5835E-03
  DOF#     Reaction
    1      1.0000E+04
    2      3.3121E+03
    3      1.3310E-05
    4     -5.6242E+03
    5     -1.0000E+04
    6      3.3121E+03
ELEM#	 von Mises Stresses at 4 Integ_points
    1      2.7482E+06     2.7043E+06     1.6121E+06     1.5851E+06
    2      1.5851E+06     1.6121E+06     2.7043E+06     2.7482E+06
    3      2.8169E+06     2.5985E+06     1.4246E+06     1.8207E+06
    4      1.8207E+06     1.4246E+06     2.5985E+06     2.8169E+06
    5      2.4126E+06     2.2412E+06     1.2397E+06     1.5310E+06
    6      1.5310E+06     1.2397E+06     2.2412E+06     2.4126E+06
    7      2.1224E+06     1.9409E+06     1.0548E+06     1.3688E+06
    8      1.3688E+06     1.0548E+06     1.9409E+06     2.1224E+06
    9      1.8071E+06     1.6281E+06     8.7018E+05     1.1787E+06
   10      1.1787E+06     8.7020E+05     1.6281E+06     1.8072E+06
   11      1.4980E+06     1.3189E+06     6.8629E+05     9.9498E+05
   12      9.9501E+05     6.8617E+05     1.3187E+06     1.4980E+06
   13      1.1878E+06     1.0088E+06     5.0227E+05     8.1044E+05
   14      8.1010E+05     5.0272E+05     1.0093E+06     1.1878E+06
   15      8.8007E+05     7.0483E+05     3.2495E+05     6.2537E+05
   16      6.2739E+05     3.2553E+05     7.0437E+05     8.8129E+05
   17      5.7585E+05     4.0061E+05     1.5879E+05     4.4821E+05
   18      4.4058E+05     1.3145E+05     3.8535E+05     5.6342E+05
   19      2.6774E+05     1.2901E+05     1.0496E+05     2.6183E+05
   20      2.6592E+05     1.8843E+05     2.7683E+05     3.4065E+05
